p cnf 4 4 
c chaque sommet si il est choisi on ne dois pas prendre ses adjaçent
c sommet 0 choisi :
-1 -2 0
-1 -4 0
c sommet 1 choisi :
-2 -1 0
-2 -3 0
c sommet 2 choisi :
-3 -2 0
-3 -4 0
c sommet 3 choisi :
-4 -1 0
-4 -3 0
